c Reduced graph for 3-FullIns_4 generated by Cyril Grelier
p edge 43 199
e 1 4
e 1 5
e 1 6
e 1 7
e 1 11
e 1 12
e 1 13
e 1 14
e 1 15
e 1 16
e 1 17
e 1 18
e 1 24
e 1 25
e 1 30
e 1 31
e 1 32
e 1 33
e 1 34
e 1 35
e 1 38
e 1 39
e 2 8
e 2 11
e 2 12
e 2 13
e 2 14
e 2 19
e 2 20
e 2 21
e 2 22
e 2 23
e 2 28
e 2 29
e 2 30
e 2 31
e 2 32
e 2 33
e 2 34
e 2 35
e 2 40
e 2 41
e 2 42
e 2 43
e 3 9
e 3 10
e 3 15
e 3 16
e 3 17
e 3 18
e 3 23
e 3 32
e 3 33
e 3 34
e 3 35
e 3 36
e 3 37
e 3 38
e 3 39
e 3 40
e 3 41
e 3 42
e 3 43
e 4 5
e 4 6
e 4 7
e 4 8
e 4 10
e 4 12
e 4 13
e 4 14
e 4 16
e 4 17
e 4 18
e 4 23
e 4 33
e 4 34
e 4 35
e 5 6
e 5 7
e 5 8
e 5 10
e 5 11
e 5 13
e 5 14
e 5 15
e 5 17
e 5 18
e 5 23
e 5 32
e 5 34
e 5 35
e 6 7
e 6 8
e 6 10
e 6 11
e 6 12
e 6 14
e 6 15
e 6 16
e 6 18
e 6 23
e 6 32
e 6 33
e 6 35
e 7 8
e 7 10
e 7 11
e 7 12
e 7 13
e 7 15
e 7 16
e 7 17
e 7 23
e 7 32
e 7 33
e 7 34
e 8 9
e 8 15
e 8 16
e 8 17
e 8 18
e 8 24
e 8 25
e 8 38
e 8 39
e 9 11
e 9 12
e 9 13
e 9 14
e 9 19
e 9 20
e 9 21
e 9 22
e 9 28
e 9 29
e 9 30
e 9 31
e 10 11
e 10 12
e 10 13
e 10 14
e 10 24
e 10 25
e 10 30
e 10 31
e 11 16
e 11 17
e 11 18
e 12 15
e 12 17
e 12 18
e 13 15
e 13 16
e 13 18
e 14 15
e 14 16
e 14 17
e 19 20
e 19 21
e 19 22
e 19 41
e 19 42
e 19 43
e 20 21
e 20 22
e 20 40
e 20 42
e 20 43
e 21 22
e 21 40
e 21 41
e 21 43
e 22 40
e 22 41
e 22 42
e 23 24
e 23 25
e 24 27
e 24 29
e 24 37
e 25 26
e 25 28
e 25 36
e 26 27
e 26 29
e 26 31
e 26 37
e 26 39
e 27 28
e 27 30
e 27 36
e 27 38
e 28 37
e 28 39
e 29 36
e 29 38
e 30 37
e 31 36
